3	25
242	540	671	104	165	511	268	644	97	367	700	640	821	470	323	774	587	853	236	462	692	380	176	371	992	
896	934	621	927	161	172	514	855	663	55	168	599	427	853	752	257	797	703	251	836	985	454	616	595	203	
1192	1192	1192	
